output_file = "12-1-B-80-1.20-67.csv";

n_days = 80;
n_shelf_types = 2;
n_crops = 1;

num_shelves = [
    8, 4
];


crop_shelf_type_compatible = [
    [1, 1]
];

crop_growth_days = [15];

n_configurations = 2;

crop_growth_day_config = [
    [1, 1, 1, 2, 2, 2, 2, 2, 2, 2, 2, 2, 2, 2, 2]
];

capacity = [
    [12, 12],
[12, 12]
];

demand = [
    [0, 0, 0, 0, 0, 0, 0, 0, 0, 0, 0, 0, 0, 0, 0, 0, 0, 0, 0, 0, 0, 0, 0, 8, 0, 0, 16, 6, 0, 0, 0, 10, 0, 0, 6, 0, 0, 0, 21, 19, 0, 2, 8, 0, 0, 19, 0, 13, 0, 10, 0, 10, 22, 0, 16, 0, 3, 3, 6, 0, 0, 15, 0, 6, 0, 8, 10, 19, 0, 0, 0, 0, 0, 14, 12, 0, 7, 0, 0, 0]
];
